
Gurobi 7.0.1 (win64) logging started 04/04/17 15:38:23

Changed value of parameter LogFile to outputlogs\log_LPIP_prov_code_7_8_1491334703.log
   Prev: gurobi.log  Default: 
Optimize a model with 2860 rows, 143690 columns and 287814 nonzeros
Variable types: 0 continuous, 143690 integer (143690 binary)
Coefficient statistics:
  Matrix range     [1e+00, 1e+03]
  Objective range  [6e+00, 1e+07]
  Bounds range     [1e+00, 1e+00]
  RHS range        [1e+00, 2e+01]
Presolve removed 240 rows and 0 columns
Presolve time: 0.36s
Presolved: 2620 rows, 143690 columns, 287574 nonzeros
Variable types: 0 continuous, 143690 integer (143690 binary)

Root simplex log...

Iteration    Objective       Primal Inf.    Dual Inf.      Time
       0    0.0000000e+00   1.990000e+03   0.000000e+00     45s
    2041    1.3462932e+07   0.000000e+00   0.000000e+00     45s

Root relaxation: objective 1.346293e+07, 2041 iterations, 0.06 seconds

    Nodes    |    Current Node    |     Objective Bounds      |     Work
 Expl Unexpl |  Obj  Depth IntInf | Incumbent    BestBd   Gap | It/Node Time

     0     0 1.3463e+07    0    5          - 1.3463e+07      -     -   45s
     0     0 1.3463e+07    0    5          - 1.3463e+07      -     -   54s
     0     0 1.3463e+07    0    5          - 1.3463e+07      -     -   62s
H    0     0                    3.582820e+07 1.3463e+07  62.4%     -   71s
     0     0 1.3606e+07    0   67 3.5828e+07 1.3606e+07  62.0%     -   71s
     0     0 1.3606e+07    0   67 3.5828e+07 1.3606e+07  62.0%     -   80s
H    0     0                    3.582725e+07 1.3606e+07  62.0%     -   97s
     0     0 1.3640e+07    0   12 3.5827e+07 1.3640e+07  61.9%     -   97s
     0     0 1.3640e+07    0   12 3.5827e+07 1.3640e+07  61.9%     -  106s
     0     0 1.3640e+07    0   12 3.5827e+07 1.3640e+07  61.9%     -  114s
H    0     0                    1.364042e+07 1.3640e+07  0.01%     -  123s

Cutting planes:
  Cover: 10
  Clique: 908
  MIR: 7
  StrongCG: 1
  Lazy constraints: 6052

Explored 0 nodes (4398 simplex iterations) in 123.18 seconds
Thread count was 4 (of 4 available processors)

Solution count 3: 1.36404e+07 3.58273e+07 3.58282e+07 
Pool objective bound 1.36397e+07

Optimal solution found (tolerance 1.00e-04)
Best objective 1.364041875323e+07, best bound 1.363966438373e+07, gap 0.0055%
